<?xml version = "1.0" encoding="UTF-8" standalone="yes"?>
<CPLEXSolution version="1.2">
 <header
   problemName="IloCplex"
   solutionName="p0"
   solutionIndex="-1"
   objectiveValue="0"
   solutionTypeValue="3"
   solutionTypeString="primal"
   solutionStatusValue="127"
   solutionStatusString="integer feasible solution"
   solutionMethodString="mip"
   primalFeasible="0"
   dualFeasible="0"
   writeLevel="3"/>
 <quality
   epInt="1.0000000000000001e-05"
   epRHS="9.9999999999999995e-07"
   maxIntInfeas="0"
   maxPrimalInfeas="0"
   maxX="2040"
   maxSlack="15959"/>
 <variables>
  <variable index="21" value="1"/>
  <variable index="294" value="1"/>
  <variable index="327" value="1"/>
  <variable index="481" value="1"/>
  <variable index="628" value="1"/>
  <variable index="772" value="1"/>
  <variable index="923" value="1"/>
  <variable index="1083" value="1"/>
  <variable index="1360" value="1"/>
  <variable index="1385" value="1"/>
  <variable index="1532" value="1"/>
  <variable index="1676" value="1"/>
  <variable index="1829" value="1"/>
  <variable index="1974" value="1"/>
  <variable index="2125" value="1"/>
  <variable index="2287" value="1"/>
  <variable index="2430" value="1"/>
  <variable index="2586" value="1"/>
  <variable index="2752" value="1"/>
  <variable index="2910" value="1"/>
  <variable index="3044" value="1"/>
  <variable index="3193" value="1"/>
  <variable index="3347" value="1"/>
  <variable index="3499" value="1"/>
  <variable index="3661" value="1"/>
  <variable index="3809" value="1"/>
  <variable index="3934" value="1"/>
  <variable index="4100" value="1"/>
  <variable index="4251" value="1"/>
  <variable index="4391" value="1"/>
  <variable index="4538" value="1"/>
  <variable index="4725" value="1"/>
  <variable index="4853" value="1"/>
  <variable index="5006" value="1"/>
  <variable index="5146" value="1"/>
  <variable index="5304" value="1"/>
  <variable index="5513" value="1"/>
  <variable index="5595" value="1"/>
  <variable index="5762" value="1"/>
  <variable index="5907" value="1"/>
  <variable index="6039" value="1"/>
  <variable index="6198" value="1"/>
  <variable index="6340" value="1"/>
  <variable index="6518" value="1"/>
  <variable index="6718" value="1"/>
  <variable index="6870" value="1"/>
  <variable index="7023" value="1"/>
  <variable index="7162" value="1"/>
  <variable index="7266" value="1"/>
  <variable index="7469" value="1"/>
  <variable index="7630" value="1"/>
  <variable index="7719" value="1"/>
  <variable index="7936" value="1"/>
  <variable index="8013" value="1"/>
  <variable index="8216" value="1"/>
  <variable index="8367" value="1"/>
  <variable index="8458" value="1"/>
  <variable index="8656" value="1"/>
  <variable index="8815" value="1"/>
  <variable index="8943" value="1"/>
  <variable index="9138" value="1"/>
  <variable index="9299" value="1"/>
  <variable index="9453" value="1"/>
  <variable index="9534" value="1"/>
  <variable index="9679" value="1"/>
  <variable index="9832" value="1"/>
  <variable index="9985" value="1"/>
  <variable index="10136" value="1"/>
  <variable index="10281" value="1"/>
  <variable index="10433" value="1"/>
  <variable index="10592" value="1"/>
  <variable index="10739" value="1"/>
  <variable index="10888" value="1"/>
  <variable index="11030" value="1"/>
  <variable index="11252" value="1"/>
  <variable index="11359" value="1"/>
  <variable index="11504" value="1"/>
  <variable index="11661" value="1"/>
  <variable index="11803" value="1"/>
  <variable index="11952" value="1"/>
  <variable index="12077" value="1"/>
  <variable index="12255" value="1"/>
  <variable index="12410" value="1"/>
  <variable index="12546" value="1"/>
  <variable index="12699" value="1"/>
  <variable index="12848" value="1"/>
  <variable index="12995" value="1"/>
  <variable index="13151" value="1"/>
  <variable index="13297" value="1"/>
  <variable index="13450" value="1"/>
  <variable index="13607" value="1"/>
  <variable index="13758" value="1"/>
  <variable index="13871" value="1"/>
  <variable index="14020" value="1"/>
  <variable index="14221" value="1"/>
  <variable index="14324" value="1"/>
  <variable index="14514" value="1"/>
  <variable index="14615" value="1"/>
  <variable index="14778" value="1"/>
  <variable index="14972" value="1"/>
  <variable index="15055" value="1"/>
  <variable index="15226" value="1"/>
  <variable index="15364" value="1"/>
  <variable index="15523" value="1"/>
  <variable index="15725" value="1"/>
  <variable index="15840" value="1"/>
  <variable index="16037" value="1"/>
  <variable index="16183" value="1"/>
  <variable index="16335" value="1"/>
  <variable index="16489" value="1"/>
  <variable index="16572" value="1"/>
  <variable index="16737" value="1"/>
  <variable index="16934" value="1"/>
  <variable index="17076" value="1"/>
  <variable index="17232" value="1"/>
  <variable index="17381" value="1"/>
  <variable index="17524" value="1"/>
  <variable index="17678" value="1"/>
  <variable index="17829" value="1"/>
  <variable index="17977" value="1"/>
  <variable index="18154" value="1"/>
  <variable index="18217" value="1"/>
  <variable index="18443" value="1"/>
  <variable index="18590" value="1"/>
  <variable index="18745" value="1"/>
  <variable index="18898" value="1"/>
  <variable index="19042" value="1"/>
  <variable index="19201" value="1"/>
  <variable index="19359" value="1"/>
  <variable index="19444" value="1"/>
  <variable index="19646" value="1"/>
  <variable index="19817" value="1"/>
  <variable index="19956" value="1"/>
  <variable index="20116" value="1"/>
  <variable index="20258" value="1"/>
  <variable index="20411" value="1"/>
  <variable index="20555" value="1"/>
  <variable index="20715" value="1"/>
  <variable index="20847" value="1"/>
  <variable index="21012" value="1"/>
  <variable index="21042" value="1"/>
  <variable index="21291" value="1"/>
  <variable index="21450" value="1"/>
  <variable index="21607" value="1"/>
  <variable index="21691" value="1"/>
  <variable index="21919" value="1"/>
  <variable index="22063" value="1"/>
  <variable index="22218" value="1"/>
  <variable index="22364" value="1"/>
  <variable index="22370" value="1"/>
  <variable index="22540" value="2040"/>
 </variables>
</CPLEXSolution>
